Route #1: 1 34 48 27 3 67 17 44 42 19 1
Route #2: 1 13 59 14 29 57 16 64 1
Route #3: 1 65 41 45 43 40 54 37 5 15 36 1
Route #4: 1 49 26 22 56 55 53 23 46 66 33 1
Route #5: 1 6 10 39 11 28 52 1
Route #6: 1 32 18 30 25 60 8 1
Route #7: 1 47 51 12 21 20 1
Route #8: 1 58 31 4 63 62 61 1
Route #9: 1 38 24 9 2 50 1
Route #10: 1 7 35 1
cost 1333
